c 
c MolecularSimulation 0.9.3
c Simulation written: Jan 13 2012 -- 15:17:57
c Test: Lipton
c Input: ./data/testCNF/SWEEP_R1_K3_N20_M12_S001.cnf
c 
s SATISFIABLE
v -1 -2 -3 -4 -5 -6 -7 -8 -9 -10 -11 -12 -13 -14 -15 -16 -17 18 -19 20 0
c algorithmTime:  116
c solutionMemory: 221826
c mixCount:       70
c extractCount:   36
c appendCount:    40
c splitCount:     20
c spliceCount:    0
c purifyCount:    13
c 
